NAME : hk48
TYPE : OP
DIMENSION : 48
COST_LIMIT : 9169
ROUTE_NODES : 39
ROUTE_SCORE : 2177
ROUTE_COST : 9168
NODE_SEQUENCE_SECTION
1
2
15
43
21
33
5
3
23
10
40
36
34
6
8
47
7
38
14
18
12
22
13
28
25
32
29
26
24
35
17
20
4
46
45
39
42
11
16
-1
DEPOT_SECTION
1
-1
EOF
